<number of tasks>
20

<cycle time>
1000

<order strength>
0,563


<task times>
1 325
2 113
3 59
4 51
5 163
6 112
7 214
8 107
9 181
10 34
11 123
12 141
13 138
14 300
15 78
16 37
17 154
18 263
19 123
20 218

<precedence relations>
1,4
2,5
2,6
3,5
4,7
5,7
6,16
7,8
7,9
7,10
7,11
8,13
9,14
10,12
10,15
10,16
10,19
11,16
11,17
12,18
13,19
14,19
16,20
17,20

<end>
